[[16, 24, 49, 63, 23, 56, 43, 41, 42, 64, 22, 33, 73, 62, 28, 61, 74, 2, 30, 48, 21, 47, 69, 36, 71, 60, 70, 20, 37, 5, 15, 57, 13, 29, 27, 52, 45, 4], [75, 68, 6, 51, 17, 12, 26, 76, 67, 34, 46, 7, 8, 35, 19, 54, 53, 14, 59, 66, 11, 65, 38, 10, 58, 72, 39, 9, 31, 25, 55, 18, 50, 32, 40, 44, 3]]